problems/csplib-prob007/AllIntervalSeries-models/compact/O2/lingeling/model-10-solution000001.eprime-solution
language ESSENCE' 1.0

letting s_Function1D be [1, 9, 0, 7, 4, 5, 3, 8, 2, 6; int(1..10)]
letting v_Function1D be [8, 9, 7, 3, 1, 2, 5, 6, 4; int(1..9)]
