problems/csplib-prob007/AllIntervalSeries-models/compact/O2/lingeling/model-10-solution000001.solution
language Essence 1.3

letting s be function(1 --> 1, 2 --> 9, 3 --> 0, 4 --> 7, 5 --> 4, 6 --> 5, 7 --> 3, 8 --> 8, 9 --> 2, 10 --> 6)
letting v be function(1 --> 8, 2 --> 9, 3 --> 7, 4 --> 3, 5 --> 1, 6 --> 2, 7 --> 5, 8 --> 6, 9 --> 4)
